# Objective value = 1.0499938395145216e+02
x[0,1,0,8] 1
x[0,1,0,3] 1
x[0,1,0,6] 1
x[0,1,0,4] 1
x[0,1,0,5] 1
x[0,1,0,7] 1
x[0,1,1,0] 0
x[0,1,1,3] 0
x[0,1,1,9] 0
x[0,1,1,7] 0
x[0,1,2,10] 0
x[0,1,2,0] 0
x[0,1,2,3] 0
x[0,1,2,1] 0
x[0,1,2,7] 0
x[0,1,2,4] 0
x[0,2,0,8] 0
x[0,2,0,3] 0
x[0,2,0,6] 0
x[0,2,0,4] 0
x[0,2,0,5] 0
x[0,2,0,7] 0
x[0,2,1,0] 0
x[0,2,1,3] 0
x[0,2,1,9] 0
x[0,2,1,7] 0
x[0,2,2,10] 0
x[0,2,2,0] 0
x[0,2,2,3] 0
x[0,2,2,1] 0
x[0,2,2,7] 0
x[0,2,2,4] 0
x[1,0,0,8] 0
x[1,0,0,3] 0
x[1,0,0,6] 0
x[1,0,0,4] 0
x[1,0,0,5] 0
x[1,0,0,7] 0
x[1,0,1,0] 1
x[1,0,1,3] 0
x[1,0,1,9] 0
x[1,0,1,7] 0
x[1,0,2,10] 0
x[1,0,2,0] 1
x[1,0,2,3] 0
x[1,0,2,1] 0
x[1,0,2,7] 0
x[1,0,2,4] 0
x[1,10,0,8] 1
x[1,10,0,3] 1
x[1,10,0,6] 1
x[1,10,0,4] 1
x[1,10,0,5] 1
x[1,10,0,7] 1
x[1,10,1,0] 0
x[1,10,1,3] 0
x[1,10,1,9] 0
x[1,10,1,7] 0
x[1,10,2,10] 0
x[1,10,2,0] 0
x[1,10,2,3] 0
x[1,10,2,1] 0
x[1,10,2,7] 0
x[1,10,2,4] 0
x[2,0,0,8] 0
x[2,0,0,3] 0
x[2,0,0,6] 0
x[2,0,0,4] 0
x[2,0,0,5] 0
x[2,0,0,7] 0
x[2,0,1,0] 0
x[2,0,1,3] 0
x[2,0,1,9] 0
x[2,0,1,7] 0
x[2,0,2,10] 0
x[2,0,2,0] 0
x[2,0,2,3] 0
x[2,0,2,1] 0
x[2,0,2,7] 0
x[2,0,2,4] 0
x[2,9,0,8] 0
x[2,9,0,3] 0
x[2,9,0,6] 0
x[2,9,0,4] 0
x[2,9,0,5] 0
x[2,9,0,7] 0
x[2,9,1,0] 0
x[2,9,1,3] 0
x[2,9,1,9] 0
x[2,9,1,7] 0
x[2,9,2,10] 0
x[2,9,2,0] 0
x[2,9,2,3] 0
x[2,9,2,1] 0
x[2,9,2,7] 0
x[2,9,2,4] 0
x[3,4,0,8] 0
x[3,4,0,3] 0
x[3,4,0,6] 0
x[3,4,0,4] 0
x[3,4,0,5] 0
x[3,4,0,7] 0
x[3,4,1,0] 0
x[3,4,1,3] 0
x[3,4,1,9] 0
x[3,4,1,7] 0
x[3,4,2,10] 0
x[3,4,2,0] 0
x[3,4,2,3] 0
x[3,4,2,1] 0
x[3,4,2,7] 0
x[3,4,2,4] 0
x[3,6,0,8] 0
x[3,6,0,3] 0
x[3,6,0,6] 0
x[3,6,0,4] 0
x[3,6,0,5] 0
x[3,6,0,7] 0
x[3,6,1,0] 0
x[3,6,1,3] 0
x[3,6,1,9] 0
x[3,6,1,7] 0
x[3,6,2,10] 0
x[3,6,2,0] 0
x[3,6,2,3] 0
x[3,6,2,1] 0
x[3,6,2,7] 0
x[3,6,2,4] 0
x[4,3,0,8] 0
x[4,3,0,3] 0
x[4,3,0,6] 0
x[4,3,0,4] 0
x[4,3,0,5] 0
x[4,3,0,7] 0
x[4,3,1,0] 0
x[4,3,1,3] 0
x[4,3,1,9] 0
x[4,3,1,7] 0
x[4,3,2,10] 0
x[4,3,2,0] 0
x[4,3,2,3] 1
x[4,3,2,1] 0
x[4,3,2,7] 0
x[4,3,2,4] 0
x[4,5,0,8] 0
x[4,5,0,3] 0
x[4,5,0,6] 0
x[4,5,0,4] 0
x[4,5,0,5] 0
x[4,5,0,7] 0
x[4,5,1,0] 0
x[4,5,1,3] 0
x[4,5,1,9] 0
x[4,5,1,7] 0
x[4,5,2,10] 0
x[4,5,2,0] 0
x[4,5,2,3] 0
x[4,5,2,1] 0
x[4,5,2,7] 0
x[4,5,2,4] 0
x[4,6,0,8] 0
x[4,6,0,3] 0
x[4,6,0,6] 0
x[4,6,0,4] 0
x[4,6,0,5] 0
x[4,6,0,7] 0
x[4,6,1,0] 0
x[4,6,1,3] 0
x[4,6,1,9] 0
x[4,6,1,7] 0
x[4,6,2,10] 0
x[4,6,2,0] 0
x[4,6,2,3] 0
x[4,6,2,1] 0
x[4,6,2,7] 0
x[4,6,2,4] 0
x[5,4,0,8] 0
x[5,4,0,3] 0
x[5,4,0,6] 0
x[5,4,0,4] 0
x[5,4,0,5] 0
x[5,4,0,7] 0
x[5,4,1,0] 0
x[5,4,1,3] 0
x[5,4,1,9] 0
x[5,4,1,7] 0
x[5,4,2,10] 0
x[5,4,2,0] 0
x[5,4,2,3] 1
x[5,4,2,1] 0
x[5,4,2,7] 0
x[5,4,2,4] 1
x[5,8,0,8] 0
x[5,8,0,3] 0
x[5,8,0,6] 0
x[5,8,0,4] 0
x[5,8,0,5] 0
x[5,8,0,7] 0
x[5,8,1,0] 0
x[5,8,1,3] 0
x[5,8,1,9] 0
x[5,8,1,7] 0
x[5,8,2,10] 1
x[5,8,2,0] 1
x[5,8,2,3] 0
x[5,8,2,1] 1
x[5,8,2,7] 1
x[5,8,2,4] 0
x[6,3,0,8] 0
x[6,3,0,3] 1
x[6,3,0,6] 0
x[6,3,0,4] 0
x[6,3,0,5] 0
x[6,3,0,7] 0
x[6,3,1,0] 0
x[6,3,1,3] 1
x[6,3,1,9] 0
x[6,3,1,7] 0
x[6,3,2,10] 0
x[6,3,2,0] 0
x[6,3,2,3] 0
x[6,3,2,1] 0
x[6,3,2,7] 0
x[6,3,2,4] 0
x[6,4,0,8] 0
x[6,4,0,3] 0
x[6,4,0,6] 0
x[6,4,0,4] 1
x[6,4,0,5] 0
x[6,4,0,7] 0
x[6,4,1,0] 0
x[6,4,1,3] 0
x[6,4,1,9] 0
x[6,4,1,7] 0
x[6,4,2,10] 0
x[6,4,2,0] 0
x[6,4,2,3] 0
x[6,4,2,1] 0
x[6,4,2,7] 0
x[6,4,2,4] 0
x[6,7,0,8] 0
x[6,7,0,3] 0
x[6,7,0,6] 0
x[6,7,0,4] 0
x[6,7,0,5] 0
x[6,7,0,7] 0
x[6,7,1,0] 0
x[6,7,1,3] 0
x[6,7,1,9] 0
x[6,7,1,7] 0
x[6,7,2,10] 0
x[6,7,2,0] 0
x[6,7,2,3] 0
x[6,7,2,1] 0
x[6,7,2,7] 0
x[6,7,2,4] 0
x[7,6,0,8] 0
x[7,6,0,3] 1
x[7,6,0,6] 1
x[7,6,0,4] 1
x[7,6,0,5] 0
x[7,6,0,7] 0
x[7,6,1,0] 0
x[7,6,1,3] 1
x[7,6,1,9] 0
x[7,6,1,7] 0
x[7,6,2,10] 0
x[7,6,2,0] 0
x[7,6,2,3] 0
x[7,6,2,1] 0
x[7,6,2,7] 0
x[7,6,2,4] 0
x[7,8,0,8] 0
x[7,8,0,3] 0
x[7,8,0,6] 0
x[7,8,0,4] 0
x[7,8,0,5] 0
x[7,8,0,7] 0
x[7,8,1,0] 0
x[7,8,1,3] 0
x[7,8,1,9] 0
x[7,8,1,7] 0
x[7,8,2,10] 0
x[7,8,2,0] 0
x[7,8,2,3] 0
x[7,8,2,1] 0
x[7,8,2,7] 0
x[7,8,2,4] 0
x[7,10,0,8] 0
x[7,10,0,3] 0
x[7,10,0,6] 0
x[7,10,0,4] 0
x[7,10,0,5] 0
x[7,10,0,7] 0
x[7,10,1,0] 0
x[7,10,1,3] 0
x[7,10,1,9] 0
x[7,10,1,7] 0
x[7,10,2,10] 1
x[7,10,2,0] 1
x[7,10,2,3] 0
x[7,10,2,1] 1
x[7,10,2,7] 0
x[7,10,2,4] 0
x[8,5,0,8] 0
x[8,5,0,3] 0
x[8,5,0,6] 0
x[8,5,0,4] 0
x[8,5,0,5] 1
x[8,5,0,7] 0
x[8,5,1,0] 0
x[8,5,1,3] 0
x[8,5,1,9] 0
x[8,5,1,7] 0
x[8,5,2,10] 0
x[8,5,2,0] 0
x[8,5,2,3] 0
x[8,5,2,1] 0
x[8,5,2,7] 0
x[8,5,2,4] 0
x[8,7,0,8] 0
x[8,7,0,3] 0
x[8,7,0,6] 0
x[8,7,0,4] 0
x[8,7,0,5] 0
x[8,7,0,7] 0
x[8,7,1,0] 0
x[8,7,1,3] 0
x[8,7,1,9] 0
x[8,7,1,7] 0
x[8,7,2,10] 1
x[8,7,2,0] 1
x[8,7,2,3] 0
x[8,7,2,1] 1
x[8,7,2,7] 1
x[8,7,2,4] 0
x[8,9,0,8] 0
x[8,9,0,3] 0
x[8,9,0,6] 0
x[8,9,0,4] 0
x[8,9,0,5] 0
x[8,9,0,7] 0
x[8,9,1,0] 0
x[8,9,1,3] 0
x[8,9,1,9] 0
x[8,9,1,7] 0
x[8,9,2,10] 0
x[8,9,2,0] 0
x[8,9,2,3] 0
x[8,9,2,1] 0
x[8,9,2,7] 0
x[8,9,2,4] 0
x[9,2,0,8] 0
x[9,2,0,3] 0
x[9,2,0,6] 0
x[9,2,0,4] 0
x[9,2,0,5] 0
x[9,2,0,7] 0
x[9,2,1,0] 0
x[9,2,1,3] 0
x[9,2,1,9] 0
x[9,2,1,7] 0
x[9,2,2,10] 0
x[9,2,2,0] 0
x[9,2,2,3] 0
x[9,2,2,1] 0
x[9,2,2,7] 0
x[9,2,2,4] 0
x[9,8,0,8] 1
x[9,8,0,3] 0
x[9,8,0,6] 0
x[9,8,0,4] 0
x[9,8,0,5] 1
x[9,8,0,7] 0
x[9,8,1,0] 0
x[9,8,1,3] 0
x[9,8,1,9] 0
x[9,8,1,7] 0
x[9,8,2,10] 0
x[9,8,2,0] 0
x[9,8,2,3] 0
x[9,8,2,1] 0
x[9,8,2,7] 0
x[9,8,2,4] 0
x[9,10,0,8] 0
x[9,10,0,3] 0
x[9,10,0,6] 0
x[9,10,0,4] 0
x[9,10,0,5] 0
x[9,10,0,7] 0
x[9,10,1,0] 0
x[9,10,1,3] 0
x[9,10,1,9] 0
x[9,10,1,7] 0
x[9,10,2,10] 0
x[9,10,2,0] 0
x[9,10,2,3] 0
x[9,10,2,1] 0
x[9,10,2,7] 0
x[9,10,2,4] 0
x[10,1,0,8] 0
x[10,1,0,3] 0
x[10,1,0,6] 0
x[10,1,0,4] 0
x[10,1,0,5] 0
x[10,1,0,7] 0
x[10,1,1,0] 1
x[10,1,1,3] 0
x[10,1,1,9] 0
x[10,1,1,7] 0
x[10,1,2,10] 0
x[10,1,2,0] 1
x[10,1,2,3] 0
x[10,1,2,1] 1
x[10,1,2,7] 0
x[10,1,2,4] 0
x[10,7,0,8] 0
x[10,7,0,3] 1
x[10,7,0,6] 1
x[10,7,0,4] 1
x[10,7,0,5] 0
x[10,7,0,7] 1
x[10,7,1,0] 0
x[10,7,1,3] 1
x[10,7,1,9] 0
x[10,7,1,7] 1
x[10,7,2,10] 0
x[10,7,2,0] 0
x[10,7,2,3] 0
x[10,7,2,1] 0
x[10,7,2,7] 0
x[10,7,2,4] 0
x[10,9,0,8] 1
x[10,9,0,3] 0
x[10,9,0,6] 0
x[10,9,0,4] 0
x[10,9,0,5] 1
x[10,9,0,7] 0
x[10,9,1,0] 0
x[10,9,1,3] 0
x[10,9,1,9] 1
x[10,9,1,7] 0
x[10,9,2,10] 0
x[10,9,2,0] 0
x[10,9,2,3] 0
x[10,9,2,1] 0
x[10,9,2,7] 0
x[10,9,2,4] 0
y[0,1,0] 1
y[0,1,1] 0
y[0,1,2] 0
y[0,2,0] 1
y[0,2,1] 1
y[0,2,2] 0
y[1,0,0] 0
y[1,0,1] 1
y[1,0,2] 1
y[1,10,0] 1
y[1,10,1] 0
y[1,10,2] 0
y[2,0,0] 0
y[2,0,1] 0
y[2,0,2] 0
y[2,9,0] 0
y[2,9,1] 0
y[2,9,2] 0
y[3,4,0] 0
y[3,4,1] 1
y[3,4,2] 0
y[3,6,0] 0
y[3,6,1] 0
y[3,6,2] 0
y[4,3,0] 0
y[4,3,1] 0
y[4,3,2] 1
y[4,5,0] 0
y[4,5,1] 1
y[4,5,2] 0
y[4,6,0] 0
y[4,6,1] 0
y[4,6,2] 0
y[5,4,0] 0
y[5,4,1] 0
y[5,4,2] 1
y[5,8,0] 0
y[5,8,1] 0
y[5,8,2] 1
y[6,3,0] 1
y[6,3,1] 1
y[6,3,2] 0
y[6,4,0] 1
y[6,4,1] 0
y[6,4,2] 0
y[6,7,0] 0
y[6,7,1] 0
y[6,7,2] 0
y[7,6,0] 1
y[7,6,1] 1
y[7,6,2] 1
y[7,8,0] 0
y[7,8,1] 1
y[7,8,2] 0
y[7,10,0] 0
y[7,10,1] 0
y[7,10,2] 1
y[8,5,0] 1
y[8,5,1] 0
y[8,5,2] 0
y[8,7,0] 0
y[8,7,1] 0
y[8,7,2] 1
y[8,9,0] 0
y[8,9,1] 0
y[8,9,2] 1
y[9,2,0] 0
y[9,2,1] 0
y[9,2,2] 1
y[9,8,0] 1
y[9,8,1] 0
y[9,8,2] 0
y[9,10,0] 0
y[9,10,1] 0
y[9,10,2] 0
y[10,1,0] 0
y[10,1,1] 1
y[10,1,2] 1
y[10,7,0] 1
y[10,7,1] 1
y[10,7,2] 0
y[10,9,0] 1
y[10,9,1] 1
y[10,9,2] 0
w[0,1] 1
w[0,2] 2
w[1,0] 1
w[1,10] 1
w[2,0] 1
w[2,9] 2
w[3,4] 1
w[3,6] 1
w[4,3] 1
w[4,5] 1
w[4,6] 1
w[5,4] 1
w[5,8] 1
w[6,3] 1
w[6,4] 1
w[6,7] 1
w[7,6] 1
w[7,8] 2
w[7,10] 1
w[8,5] 1
w[8,7] 1
w[8,9] 2
w[9,2] 2
w[9,8] 1
w[9,10] 1
w[10,1] 1
w[10,7] 1
w[10,9] 1
k[0,1,0] 1
k[0,1,1] 0
k[0,1,2] 0
k[0,2,0] 0
k[0,2,1] 0
k[0,2,2] 0
k[1,0,0] 0
k[1,0,1] 1
k[1,0,2] 1
k[1,10,0] 2
k[1,10,1] 0
k[1,10,2] 0
k[2,0,0] 0
k[2,0,1] 0
k[2,0,2] 0
k[2,9,0] 0
k[2,9,1] 0
k[2,9,2] 0
k[3,4,0] 0
k[3,4,1] 0
k[3,4,2] 0
k[3,6,0] 0
k[3,6,1] 0
k[3,6,2] 0
k[4,3,0] 0
k[4,3,1] 0
k[4,3,2] 1
k[4,5,0] 0
k[4,5,1] 0
k[4,5,2] 0
k[4,6,0] 0
k[4,6,1] 0
k[4,6,2] 0
k[5,4,0] 0
k[5,4,1] 0
k[5,4,2] 2
k[5,8,0] 0
k[5,8,1] 0
k[5,8,2] 1
k[6,3,0] 1
k[6,3,1] 1
k[6,3,2] 0
k[6,4,0] 1
k[6,4,1] 0
k[6,4,2] 0
k[6,7,0] 0
k[6,7,1] 0
k[6,7,2] 0
k[7,6,0] 2
k[7,6,1] 1
k[7,6,2] 0
k[7,8,0] 0
k[7,8,1] 0
k[7,8,2] 0
k[7,10,0] 0
k[7,10,1] 0
k[7,10,2] 1
k[8,5,0] 1
k[8,5,1] 0
k[8,5,2] 0
k[8,7,0] 0
k[8,7,1] 0
k[8,7,2] 2
k[8,9,0] 0
k[8,9,1] 0
k[8,9,2] 0
k[9,2,0] 0
k[9,2,1] 0
k[9,2,2] 0
k[9,8,0] 1
k[9,8,1] 0
k[9,8,2] 0
k[9,10,0] 0
k[9,10,1] 0
k[9,10,2] 0
k[10,1,0] 0
k[10,1,1] 1
k[10,1,2] 1
k[10,7,0] 3
k[10,7,1] 1
k[10,7,2] 0
k[10,9,0] 1
k[10,9,1] 1
k[10,9,2] 0
b[0,0,8] 0
b[0,0,3] 0
b[0,0,6] 0
b[0,0,4] 0
b[0,0,5] 0
b[0,0,7] 0
b[0,1,0] 0
b[0,1,3] 0
b[0,1,9] 0
b[0,1,7] 0
b[0,2,10] 0
b[0,2,0] 0
b[0,2,3] 0
b[0,2,1] 0
b[0,2,7] 0
b[0,2,4] 0
b[1,0,8] 1
b[1,0,3] 0
b[1,0,6] 0
b[1,0,4] 0
b[1,0,5] 0
b[1,0,7] 0
b[1,1,0] 0
b[1,1,3] 0
b[1,1,9] 0
b[1,1,7] 0
b[1,2,10] 0
b[1,2,0] 1
b[1,2,3] 0
b[1,2,1] 0
b[1,2,7] 0
b[1,2,4] 0
b[2,0,8] 0
b[2,0,3] 0
b[2,0,6] 0
b[2,0,4] 0
b[2,0,5] 0
b[2,0,7] 0
b[2,1,0] 0
b[2,1,3] 0
b[2,1,9] 0
b[2,1,7] 0
b[2,2,10] 0
b[2,2,0] 0
b[2,2,3] 0
b[2,2,1] 0
b[2,2,7] 0
b[2,2,4] 0
b[3,0,8] 0
b[3,0,3] 0
b[3,0,6] 0
b[3,0,4] 0
b[3,0,5] 0
b[3,0,7] 0
b[3,1,0] 0
b[3,1,3] 0
b[3,1,9] 0
b[3,1,7] 0
b[3,2,10] 0
b[3,2,0] 0
b[3,2,3] 0
b[3,2,1] 0
b[3,2,7] 0
b[3,2,4] 0
b[4,0,8] 0
b[4,0,3] 0
b[4,0,6] 0
b[4,0,4] 0
b[4,0,5] 0
b[4,0,7] 0
b[4,1,0] 0
b[4,1,3] 0
b[4,1,9] 0
b[4,1,7] 0
b[4,2,10] 0
b[4,2,0] 0
b[4,2,3] 1
b[4,2,1] 0
b[4,2,7] 0
b[4,2,4] 0
b[5,0,8] 0
b[5,0,3] 0
b[5,0,6] 0
b[5,0,4] 0
b[5,0,5] 0
b[5,0,7] 0
b[5,1,0] 0
b[5,1,3] 0
b[5,1,9] 0
b[5,1,7] 0
b[5,2,10] 1
b[5,2,0] 0
b[5,2,3] 0
b[5,2,1] 0
b[5,2,7] 0
b[5,2,4] 1
b[6,0,8] 0
b[6,0,3] 1
b[6,0,6] 0
b[6,0,4] 0
b[6,0,5] 0
b[6,0,7] 0
b[6,1,0] 0
b[6,1,3] 0
b[6,1,9] 0
b[6,1,7] 0
b[6,2,10] 0
b[6,2,0] 0
b[6,2,3] 0
b[6,2,1] 0
b[6,2,7] 0
b[6,2,4] 0
b[7,0,8] 0
b[7,0,3] 0
b[7,0,6] 0
b[7,0,4] 0
b[7,0,5] 0
b[7,0,7] 0
b[7,1,0] 0
b[7,1,3] 1
b[7,1,9] 0
b[7,1,7] 0
b[7,2,10] 0
b[7,2,0] 0
b[7,2,3] 0
b[7,2,1] 0
b[7,2,7] 0
b[7,2,4] 0
b[8,0,8] 0
b[8,0,3] 0
b[8,0,6] 0
b[8,0,4] 0
b[8,0,5] 1
b[8,0,7] 0
b[8,1,0] 0
b[8,1,3] 0
b[8,1,9] 0
b[8,1,7] 0
b[8,2,10] 0
b[8,2,0] 0
b[8,2,3] 0
b[8,2,1] 0
b[8,2,7] 1
b[8,2,4] 0
b[9,0,8] 0
b[9,0,3] 0
b[9,0,6] 0
b[9,0,4] 0
b[9,0,5] 0
b[9,0,7] 0
b[9,1,0] 0
b[9,1,3] 0
b[9,1,9] 0
b[9,1,7] 0
b[9,2,10] 0
b[9,2,0] 0
b[9,2,3] 0
b[9,2,1] 0
b[9,2,7] 0
b[9,2,4] 0
b[10,0,8] 0
b[10,0,3] 0
b[10,0,6] 1
b[10,0,4] 0
b[10,0,5] 0
b[10,0,7] 1
b[10,1,0] 0
b[10,1,3] 1
b[10,1,9] 1
b[10,1,7] 0
b[10,2,10] 0
b[10,2,0] 0
b[10,2,3] 0
b[10,2,1] 1
b[10,2,7] 0
b[10,2,4] 0
c[0,1] 1.9446137807062769e-01
c[0,2] 0
c[1,0] 4.89464654990843
c[1,10] 2.9934504066386580e-01
c[2,0] 0
c[2,9] 0
c[3,4] 0
c[3,6] 0
c[4,3] 8.8873667441293946e-01
c[4,5] 0
c[4,6] 0
c[5,4] 5.8708721365437668e+01
c[5,8] 2.5720636351470603e+00
c[6,3] 3.9655823609937215e+00
c[6,4] 2.0408440880237322e-01
c[6,7] 0
c[7,6] 4.2495519328585942e+00
c[7,8] 0
c[7,10] 6.9721448202551528e-01
c[8,5] 1.6684693715660615e-01
c[8,7] 2.1318037658329558e+01
c[8,9] 0
c[9,2] 0
c[9,8] 1.7392164183911518e-01
c[9,10] 0
c[10,1] 2.9785368274660868e+00
c[10,7] 2.5997173996693164e+00
c[10,9] 1.0879156586706813e+00
gamma[0,0] 0
gamma[0,1] 0
gamma[0,2] 0
gamma[1,0] 0
gamma[1,1] 0
gamma[1,2] 0
gamma[2,0] 1
gamma[2,1] 0
gamma[2,2] 1
gamma[3,0] 0
gamma[3,1] 0
gamma[3,2] 0
gamma[4,0] 0
gamma[4,1] 0
gamma[4,2] 1
gamma[5,0] 0
gamma[5,1] 0
gamma[5,2] 0
gamma[6,0] 0
gamma[6,1] 0
gamma[6,2] 1
gamma[7,0] 0
gamma[7,1] 0
gamma[7,2] 0
gamma[8,0] 1
gamma[8,1] 0
gamma[8,2] 0
gamma[9,0] 0
gamma[9,1] 0
gamma[9,2] 1
gamma[10,0] 0
gamma[10,1] 0
gamma[10,2] 0
delta[0,0] 0
delta[0,1] 0
delta[0,2] 0
delta[1,0] 0
delta[1,1] 0
delta[1,2] 0
delta[2,0] 0
delta[2,1] 0
delta[2,2] 0
delta[3,0] 0
delta[3,1] 0
delta[3,2] 0
delta[4,0] 0
delta[4,1] 0
delta[4,2] 0
delta[5,0] 0
delta[5,1] 0
delta[5,2] 0
delta[6,0] 0
delta[6,1] 0
delta[6,2] 0
delta[7,0] 0
delta[7,1] 0
delta[7,2] 0
delta[8,0] 0
delta[8,1] 0
delta[8,2] 0
delta[9,0] 0
delta[9,1] 0
delta[9,2] 0
delta[10,0] 0
delta[10,1] 0
delta[10,2] 0
